outputs/case_373.model.txt
refused_inspection_or_opening = False
internal_control_system_established = True
uncooperative_or_false_response = False
internal_handling_system_established = True
internal_handling_system_executed = True
internal_operation_system_executed = True
late_or_false_or_incomplete_reporting = False
internal_control_system_executed = True
concealed_or_destroyed_documents = False
internal_operation_system_established = True
internal_operation_executed = True
internal_handling_established = True
violation_internal_systems = False
late_or_false_reporting = False
internal_operation_ok = True
internal_handling_ok = True
uncooperative_response = False
conceal_or_destroy_documents = False
internal_control_executed = True
violation_inspection_reporting = False
penalty = False
internal_operation_established = True
internal_handling_executed = True
internal_control_established = True
internal_control_ok = True
refuse_inspection = False